set N:= 32460 32490 32501 32519 32518 32619 32657 32658 51553 32676 32677 51556 32700 32709 32719 32718;
set I:= 31837; 
set F:= 31492; 
param D default 0:= 
32460 32490 39.91
32490 32501 37.90
32501 32519 38.21
32519 32518 59.97
32619 32518 49.62
32657 32490 82.85
32658 32657 14.72
32657 51553 14.04
32676 32519 83.02
32677 32676 15.44
32676 51556 13.63
32700 32460 111.69
32709 32619 43.81
32700 32719 62.41
32718 32501 110.52
32719 32718 15.54
32718 32719 15.54
;